33D32945 STP File, STP Format Version 1.0

SECTION Comment
Name    "Series C" 
Creator "A. M. Costa" 
Format  "Z.H. Fu and J. K. Hao"
Remark  "Sparse graph with random weights"
#TotalEdgeCost 3462
#BudgetFraction 30
END 

SECTION Graph 
Nodes 500 
Edges 625 
Root 1
Budget 115
HopLimit 15
E 1 250 8 
E 1 429 3 
E 2 129 10 
E 3 73 5 
E 3 102 9 
E 3 112 10 
E 3 190 6 
E 3 319 8 
E 4 134 4 
E 4 194 1 
E 4 256 9 
E 4 488 4 
E 5 125 6 
E 5 234 1 
E 5 406 6 
E 5 416 4 
E 5 485 7 
E 6 22 4 
E 6 182 10 
E 7 75 9 
E 7 361 8 
E 7 454 9 
E 8 268 3 
E 9 252 2 
E 10 195 6 
E 10 477 9 
E 11 288 1 
E 11 355 3 
E 11 381 7 
E 12 265 10 
E 12 274 8 
E 12 495 5 
E 13 168 4 
E 13 322 8 
E 14 235 1 
E 14 424 4 
E 15 196 5 
E 15 420 9 
E 16 66 6 
E 16 293 3 
E 17 157 3 
E 17 388 7 
E 18 83 3 
E 18 455 4 
E 18 471 8 
E 19 144 6 
E 20 130 2 
E 20 230 4 
E 20 422 1 
E 21 196 9 
E 21 363 9 
E 21 469 5 
E 22 187 4 
E 22 292 6 
E 23 161 9 
E 24 77 2 
E 24 111 4 
E 24 373 2 
E 24 393 10 
E 25 33 9 
E 25 207 9 
E 25 259 10 
E 25 353 5 
E 25 497 8 
E 26 40 4 
E 26 241 9 
E 27 96 8 
E 28 209 8 
E 28 319 3 
E 29 236 4 
E 29 418 8 
E 30 239 4 
E 31 41 10 
E 31 118 8 
E 32 279 2 
E 32 287 9 
E 33 135 9 
E 34 168 3 
E 34 242 2 
E 34 258 2 
E 34 278 4 
E 34 282 4 
E 34 306 8 
E 35 155 10 
E 35 182 1 
E 36 455 8 
E 37 344 9 
E 37 446 4 
E 38 212 1 
E 38 270 10 
E 38 358 1 
E 39 355 5 
E 39 377 2 
E 39 386 1 
E 40 54 8 
E 40 338 9 
E 41 173 9 
E 41 187 8 
E 42 74 2 
E 42 112 7 
E 42 398 2 
E 42 464 1 
E 43 467 2 
E 44 208 4 
E 45 180 2 
E 45 210 6 
E 45 231 3 
E 45 243 5 
E 45 246 7 
E 45 324 8 
E 45 370 3 
E 46 95 2 
E 47 181 5 
E 47 193 1 
E 47 284 2 
E 48 466 7 
E 49 400 10 
E 50 409 6 
E 51 319 6 
E 51 360 7 
E 52 142 8 
E 52 364 10 
E 53 265 4 
E 53 482 9 
E 55 109 10 
E 56 123 1 
E 57 416 5 
E 57 468 9 
E 57 474 8 
E 58 466 7 
E 58 478 4 
E 59 118 3 
E 59 452 4 
E 60 100 4 
E 60 196 4 
E 61 85 9 
E 62 289 3 
E 62 356 9 
E 62 372 3 
E 62 385 7 
E 63 94 8 
E 63 129 10 
E 63 457 10 
E 64 89 3 
E 64 145 6 
E 64 429 9 
E 65 482 1 
E 66 75 6 
E 66 95 2 
E 66 210 10 
E 66 337 7 
E 66 358 6 
E 66 365 7 
E 67 152 2 
E 67 441 7 
E 68 200 6 
E 68 405 5 
E 68 490 7 
E 68 492 1 
E 69 455 7 
E 70 482 1 
E 71 219 7 
E 71 458 4 
E 72 182 9 
E 73 118 7 
E 73 201 5 
E 73 344 5 
E 73 346 9 
E 73 405 7 
E 73 463 5 
E 75 92 7 
E 75 166 5 
E 75 175 9 
E 76 108 4 
E 76 420 7 
E 76 440 9 
E 78 86 9 
E 78 118 6 
E 78 205 2 
E 79 222 5 
E 79 371 2 
E 79 463 4 
E 80 85 4 
E 81 263 1 
E 81 345 1 
E 81 483 5 
E 82 211 2 
E 82 267 3 
E 82 352 10 
E 83 273 6 
E 84 423 8 
E 84 442 7 
E 84 461 1 
E 85 210 10 
E 86 283 1 
E 86 411 8 
E 87 191 10 
E 87 238 8 
E 87 248 4 
E 87 323 3 
E 87 345 1 
E 87 413 8 
E 87 479 4 
E 88 385 8 
E 89 112 7 
E 89 236 8 
E 89 332 3 
E 89 424 4 
E 89 433 7 
E 90 446 10 
E 90 471 1 
E 91 112 1 
E 92 102 9 
E 93 432 1 
E 95 362 2 
E 96 145 10 
E 96 492 10 
E 97 195 9 
E 97 297 4 
E 98 270 5 
E 98 358 5 
E 98 414 5 
E 99 389 1 
E 100 125 3 
E 100 202 9 
E 101 463 3 
E 102 122 4 
E 102 158 2 
E 102 240 1 
E 102 264 5 
E 102 268 4 
E 102 486 9 
E 102 499 6 
E 103 411 5 
E 104 122 6 
E 104 232 6 
E 104 281 7 
E 105 243 9 
E 105 330 1 
E 106 425 10 
E 107 477 1 
E 108 327 7 
E 109 274 4 
E 109 406 9 
E 110 179 8 
E 110 295 1 
E 110 461 10 
E 110 499 3 
E 112 131 8 
E 112 160 7 
E 112 247 9 
E 112 322 8 
E 112 331 2 
E 112 345 7 
E 112 408 4 
E 113 279 6 
E 113 290 3 
E 113 484 9 
E 114 146 4 
E 114 302 6 
E 115 147 6 
E 115 447 7 
E 116 207 4 
E 117 398 9 
E 118 253 9 
E 118 274 8 
E 119 274 10 
E 120 123 8 
E 120 252 4 
E 120 299 4 
E 120 372 2 
E 120 377 3 
E 121 337 5 
E 122 454 7 
E 123 257 10 
E 123 362 8 
E 123 364 2 
E 123 410 2 
E 124 312 8 
E 124 349 1 
E 124 441 10 
E 125 159 5 
E 125 345 7 
E 126 309 8 
E 126 372 7 
E 127 493 4 
E 128 193 8 
E 129 315 8 
E 130 227 10 
E 130 337 10 
E 131 455 10 
E 132 210 9 
E 132 369 7 
E 133 144 6 
E 133 150 10 
E 133 212 5 
E 133 250 6 
E 134 341 9 
E 134 398 3 
E 135 175 7 
E 135 310 7 
E 135 351 8 
E 136 251 5 
E 136 280 1 
E 136 320 5 
E 136 418 1 
E 137 479 7 
E 138 429 7 
E 138 493 4 
E 139 275 3 
E 140 252 10 
E 140 436 4 
E 141 161 5 
E 141 425 4 
E 142 327 2 
E 142 497 2 
E 143 159 4 
E 143 246 6 
E 143 261 5 
E 143 409 1 
E 144 460 5 
E 144 478 3 
E 145 365 3 
E 146 298 4 
E 146 333 6 
E 146 410 8 
E 147 157 1 
E 147 173 2 
E 147 212 3 
E 148 274 2 
E 148 297 10 
E 148 308 2 
E 149 324 1 
E 151 337 5 
E 153 202 1 
E 154 387 8 
E 154 424 4 
E 155 189 8 
E 156 335 2 
E 157 211 3 
E 157 490 10 
E 158 161 1 
E 158 205 4 
E 159 176 7 
E 159 206 10 
E 159 254 7 
E 159 316 9 
E 160 210 5 
E 160 269 6 
E 160 377 6 
E 161 190 5 
E 162 445 2 
E 163 215 8 
E 163 325 9 
E 163 420 2 
E 164 345 3 
E 164 404 10 
E 165 193 1 
E 166 355 1 
E 167 385 7 
E 169 424 3 
E 170 448 3 
E 171 241 5 
E 172 236 4 
E 172 326 9 
E 174 189 7 
E 175 275 10 
E 175 370 7 
E 175 426 4 
E 177 302 3 
E 178 264 1 
E 178 404 6 
E 180 299 7 
E 180 368 7 
E 181 266 2 
E 181 282 10 
E 181 308 4 
E 181 335 1 
E 181 440 7 
E 182 198 10 
E 182 420 7 
E 182 459 9 
E 183 234 9 
E 183 430 1 
E 184 351 8 
E 185 325 6 
E 186 270 8 
E 186 372 4 
E 188 431 3 
E 189 410 10 
E 191 241 1 
E 191 456 7 
E 192 201 5 
E 192 458 3 
E 193 299 8 
E 193 394 7 
E 194 327 7 
E 194 342 2 
E 194 407 9 
E 194 453 10 
E 195 329 1 
E 196 232 5 
E 197 381 2 
E 197 411 5 
E 199 362 4 
E 200 385 7 
E 200 423 8 
E 201 213 4 
E 201 363 6 
E 201 442 10 
E 202 291 6 
E 202 373 7 
E 203 360 10 
E 203 480 9 
E 204 382 1 
E 204 383 2 
E 204 413 4 
E 204 444 5 
E 205 225 10 
E 206 276 4 
E 206 305 6 
E 206 428 2 
E 206 437 4 
E 206 477 5 
E 208 306 8 
E 209 421 8 
E 210 340 2 
E 210 445 8 
E 212 265 10 
E 213 369 3 
E 213 435 9 
E 214 500 5 
E 216 369 3 
E 216 468 1 
E 217 339 7 
E 217 452 7 
E 218 483 9 
E 219 400 4 
E 219 463 7 
E 220 243 10 
E 220 245 3 
E 220 272 8 
E 220 429 8 
E 221 448 7 
E 223 381 4 
E 223 437 4 
E 224 259 2 
E 224 430 6 
E 226 435 10 
E 227 327 7 
E 227 359 2 
E 228 261 1 
E 228 349 4 
E 229 333 5 
E 230 337 4 
E 230 500 7 
E 231 268 9 
E 231 287 2 
E 232 328 5 
E 232 492 8 
E 233 435 4 
E 234 252 8 
E 234 271 1 
E 234 415 8 
E 235 264 10 
E 237 400 4 
E 238 391 4 
E 238 423 10 
E 238 481 7 
E 239 278 10 
E 239 352 1 
E 239 452 10 
E 240 430 1 
E 241 320 1 
E 243 401 4 
E 244 275 2 
E 246 348 4 
E 246 384 3 
E 246 402 7 
E 247 482 8 
E 248 452 5 
E 249 429 7 
E 250 280 1 
E 251 317 3 
E 252 392 3 
E 255 426 8 
E 257 303 1 
E 257 304 3 
E 258 336 10 
E 258 377 8 
E 258 437 2 
E 260 354 5 
E 262 457 10 
E 264 296 3 
E 264 467 8 
E 264 498 10 
E 265 427 5 
E 265 497 4 
E 266 337 6 
E 267 418 5 
E 271 406 6 
E 273 322 5 
E 273 324 8 
E 273 357 1 
E 273 457 5 
E 274 307 7 
E 274 376 5 
E 274 379 8 
E 275 438 9 
E 276 415 9 
E 277 432 8 
E 278 385 6 
E 279 374 7 
E 279 383 8 
E 281 367 3 
E 282 347 10 
E 282 417 9 
E 282 425 2 
E 283 465 3 
E 284 400 3 
E 284 474 7 
E 285 373 8 
E 286 317 2 
E 287 444 2 
E 290 336 1 
E 290 412 1 
E 291 318 8 
E 294 348 2 
E 298 331 4 
E 298 366 8 
E 298 383 8 
E 300 405 7 
E 301 307 4 
E 301 485 5 
E 303 494 9 
E 304 487 3 
E 307 367 6 
E 311 389 3 
E 312 463 3 
E 313 314 7 
E 314 384 5 
E 317 365 7 
E 317 372 3 
E 317 466 2 
E 320 444 5 
E 321 474 4 
E 321 476 3 
E 322 339 5 
E 323 330 4 
E 323 439 5 
E 323 478 2 
E 324 343 5 
E 326 369 7 
E 327 336 2 
E 327 432 9 
E 329 435 7 
E 330 472 10 
E 332 362 7 
E 334 362 10 
E 336 378 4 
E 336 389 6 
E 338 439 2 
E 340 354 1 
E 340 435 6 
E 342 441 6 
E 344 406 7 
E 344 475 9 
E 349 361 9 
E 350 495 6 
E 354 408 1 
E 355 462 5 
E 358 381 7 
E 358 436 8 
E 359 482 8 
E 363 492 3 
E 365 477 9 
E 368 465 8 
E 369 484 9 
E 370 466 8 
E 371 494 6 
E 372 409 7 
E 372 415 9 
E 373 408 2 
E 373 448 2 
E 373 481 9 
E 374 463 8 
E 375 431 5 
E 375 435 1 
E 377 434 5 
E 378 417 8 
E 380 441 6 
E 382 467 8 
E 384 417 4 
E 389 431 3 
E 390 440 9 
E 391 400 1 
E 395 466 3 
E 396 424 3 
E 397 437 1 
E 397 470 1 
E 399 479 10 
E 403 413 5 
E 404 419 2 
E 408 443 2 
E 408 474 8 
E 408 489 4 
E 408 492 5 
E 412 447 9 
E 414 449 5 
E 414 451 6 
E 415 491 6 
E 418 481 1 
E 418 487 8 
E 419 459 7 
E 419 492 7 
E 421 491 1 
E 427 479 7 
E 427 480 10 
E 448 450 1 
E 449 476 3 
E 451 492 2 
E 455 496 4 
E 461 473 6 
E 461 481 1 
E 467 484 7 
END 

SECTION ProfitableVertices 
ProfitableVertices 125 
PV 1 5
PV 3 1
PV 4 9
PV 7 6
PV 12 3
PV 18 3
PV 20 4
PV 22 1
PV 24 5
PV 27 6
PV 29 8
PV 31 4
PV 32 8
PV 36 4
PV 40 1
PV 41 6
PV 49 9
PV 54 8
PV 56 3
PV 59 8
PV 64 6
PV 69 8
PV 70 3
PV 71 6
PV 78 7
PV 84 2
PV 103 4
PV 104 9
PV 105 6
PV 107 9
PV 111 8
PV 118 3
PV 124 3
PV 125 4
PV 129 3
PV 136 7
PV 141 1
PV 143 5
PV 144 1
PV 145 4
PV 153 1
PV 154 5
PV 160 2
PV 161 6
PV 162 8
PV 182 7
PV 183 8
PV 184 5
PV 197 4
PV 198 9
PV 199 6
PV 202 9
PV 207 6
PV 212 7
PV 217 9
PV 225 2
PV 226 6
PV 230 7
PV 233 9
PV 235 9
PV 236 8
PV 242 9
PV 246 3
PV 248 4
PV 249 7
PV 257 2
PV 263 5
PV 268 4
PV 270 7
PV 272 7
PV 282 7
PV 285 6
PV 286 5
PV 289 1
PV 290 5
PV 298 9
PV 300 8
PV 301 4
PV 305 6
PV 310 3
PV 316 8
PV 319 7
PV 321 2
PV 328 2
PV 334 6
PV 340 3
PV 346 6
PV 347 4
PV 353 3
PV 359 7
PV 368 6
PV 372 1
PV 373 7
PV 374 1
PV 379 7
PV 384 4
PV 386 9
PV 397 8
PV 402 5
PV 403 7
PV 409 2
PV 410 1
PV 413 3
PV 416 7
PV 420 1
PV 422 2
PV 426 3
PV 428 6
PV 431 7
PV 438 7
PV 441 7
PV 443 1
PV 446 1
PV 450 7
PV 452 1
PV 453 6
PV 457 1
PV 460 9
PV 464 5
PV 469 8
PV 477 3
PV 487 7
PV 493 3
PV 495 3
PV 499 8
END 

EOF 
